(set-logic ALL)
(set-option :produce-models true)
(declare-sort BoundSet 0)
(declare-sort UnboundSet 0)
(set-option :finite-model-find true)
(declare-fun IsAsian (BoundSet) Bool)
(declare-fun IsDressedInColorfulOutfit (BoundSet) Bool)
(declare-fun IsWoman (BoundSet) Bool)
(declare-fun IsWearingColorfulClothing (BoundSet) Bool)
(assert (not (=> (exists ((a BoundSet)) (and (IsAsian a) (IsDressedInColorfulOutfit a))) (exists ((c BoundSet)) (and (IsWoman c) (IsWearingColorfulClothing c))))))
(check-sat)
(get-model)